p cnf 318 1436
1 0
-2 0
-3 0
-4 0
-5 0
-6 0
-7 0
43 8 0
-43 -8 0
-8 -253 0
-8 -254 0
-8 -255 0
-9 253 0
-9 -254 0
-9 -255 0
-10 -253 0
-10 254 0
-10 -255 0
-11 253 0
-11 254 0
-11 -255 0
-12 -253 0
-12 -254 0
-12 255 0
-13 253 0
-13 -254 0
-13 255 0
-14 -253 0
-14 254 0
-14 255 0
-8 1 15 0
-8 1 50 0
-8 15 50 0
-9 2 16 0
-9 2 51 0
-9 16 51 0
-10 3 17 0
-10 3 52 0
-10 17 52 0
-11 4 18 0
-11 4 53 0
-11 18 53 0
-12 5 19 0
-12 5 54 0
-12 19 54 0
-13 6 20 0
-13 6 55 0
-13 20 55 0
-14 7 21 0
-14 7 56 0
-14 21 56 0
-8 -1 -15 -50 0
-9 -2 -16 -51 0
-10 -3 -17 -52 0
-11 -4 -18 -53 0
-12 -5 -19 -54 0
-13 -6 -20 -55 0
-14 -7 -21 -56 0
16 0
-15 0
-17 0
-18 0
-19 0
-20 0
-21 0
9 23 58 0
-9 -23 0
-9 -58 0
-23 -58 0
-22 -256 0
-22 -257 0
-22 -258 0
-23 256 0
-23 -257 0
-23 -258 0
-24 -256 0
-24 257 0
-24 -258 0
-25 256 0
-25 257 0
-25 -258 0
-26 -256 0
-26 -257 0
-26 258 0
-27 256 0
-27 -257 0
-27 258 0
-28 -256 0
-28 257 0
-28 258 0
-22 15 29 0
-22 15 64 0
-22 29 64 0
-23 16 30 0
-23 16 65 0
-23 30 65 0
-24 17 31 0
-24 17 66 0
-24 31 66 0
-25 18 32 0
-25 18 67 0
-25 32 67 0
-26 19 33 0
-26 19 68 0
-26 33 68 0
-27 20 34 0
-27 20 69 0
-27 34 69 0
-28 21 35 0
-28 21 70 0
-28 35 70 0
-22 -15 -29 -64 0
-23 -16 -30 -65 0
-24 -17 -31 -66 0
-25 -18 -32 -67 0
-26 -19 -33 -68 0
-27 -20 -34 -69 0
-28 -21 -35 -70 0
-29 -259 0
-29 -260 0
-29 -261 0
-30 259 0
-30 -260 0
-30 -261 0
-31 -259 0
-31 260 0
-31 -261 0
-32 259 0
-32 260 0
-32 -261 0
-33 -259 0
-33 -260 0
-33 261 0
-34 259 0
-34 -260 0
-34 261 0
-35 -259 0
-35 260 0
-35 261 0
-29 22 36 0
-29 22 71 0
-29 36 71 0
-30 23 37 0
-30 23 72 0
-30 37 72 0
-31 24 38 0
-31 24 73 0
-31 38 73 0
-32 25 39 0
-32 25 74 0
-32 39 74 0
-33 26 40 0
-33 26 75 0
-33 40 75 0
-34 27 41 0
-34 27 76 0
-34 41 76 0
-35 28 42 0
-35 28 77 0
-35 42 77 0
-29 -22 -36 -71 0
-30 -23 -37 -72 0
-31 -24 -38 -73 0
-32 -25 -39 -74 0
-33 -26 -40 -75 0
-34 -27 -41 -76 0
-35 -28 -42 -77 0
-36 -262 0
-36 -263 0
-36 -264 0
-37 262 0
-37 -263 0
-37 -264 0
-38 -262 0
-38 263 0
-38 -264 0
-39 262 0
-39 263 0
-39 -264 0
-40 -262 0
-40 -263 0
-40 264 0
-41 262 0
-41 -263 0
-41 264 0
-42 -262 0
-42 263 0
-42 264 0
-36 78 0
-36 29 0
-37 79 0
-37 30 0
-38 80 0
-38 31 0
-39 81 0
-39 32 0
-40 82 0
-40 33 0
-41 83 0
-41 34 0
-42 84 0
-42 35 0
46 0
-43 0
-44 0
-45 0
-47 0
-48 0
-49 0
88 53 4 0
-88 -53 0
-88 -4 0
-53 -4 0
-50 -265 0
-50 -266 0
-50 -267 0
-51 265 0
-51 -266 0
-51 -267 0
-52 -265 0
-52 266 0
-52 -267 0
-53 265 0
-53 266 0
-53 -267 0
-54 -265 0
-54 -266 0
-54 267 0
-55 265 0
-55 -266 0
-55 267 0
-56 -265 0
-56 266 0
-56 267 0
-50 92 57 8 0
-50 92 57 43 0
-50 92 8 43 0
-50 57 8 43 0
-51 93 58 9 0
-51 93 58 44 0
-51 93 9 44 0
-51 58 9 44 0
-52 94 59 10 0
-52 94 59 45 0
-52 94 10 45 0
-52 59 10 45 0
-53 95 60 11 0
-53 95 60 46 0
-53 95 11 46 0
-53 60 11 46 0
-54 96 61 12 0
-54 96 61 47 0
-54 96 12 47 0
-54 61 12 47 0
-55 97 62 13 0
-55 97 62 48 0
-55 97 13 48 0
-55 62 13 48 0
-56 98 63 14 0
-56 98 63 49 0
-56 98 14 49 0
-56 63 14 49 0
-50 -92 -57 -8 0
-50 -92 -57 -43 0
-50 -92 -8 -43 0
-50 -57 -8 -43 0
-51 -93 -58 -9 0
-51 -93 -58 -44 0
-51 -93 -9 -44 0
-51 -58 -9 -44 0
-52 -94 -59 -10 0
-52 -94 -59 -45 0
-52 -94 -10 -45 0
-52 -59 -10 -45 0
-53 -95 -60 -11 0
-53 -95 -60 -46 0
-53 -95 -11 -46 0
-53 -60 -11 -46 0
-54 -96 -61 -12 0
-54 -96 -61 -47 0
-54 -96 -12 -47 0
-54 -61 -12 -47 0
-55 -97 -62 -13 0
-55 -97 -62 -48 0
-55 -97 -13 -48 0
-55 -62 -13 -48 0
-56 -98 -63 -14 0
-56 -98 -63 -49 0
-56 -98 -14 -49 0
-56 -63 -14 -49 0
-57 -268 0
-57 -269 0
-57 -270 0
-58 268 0
-58 -269 0
-58 -270 0
-59 -268 0
-59 269 0
-59 -270 0
-60 268 0
-60 269 0
-60 -270 0
-61 -268 0
-61 -269 0
-61 270 0
-62 268 0
-62 -269 0
-62 270 0
-63 -268 0
-63 269 0
-63 270 0
-57 99 64 15 0
-57 99 64 50 0
-57 99 15 50 0
-57 64 15 50 0
-58 100 65 16 0
-58 100 65 51 0
-58 100 16 51 0
-58 65 16 51 0
-59 101 66 17 0
-59 101 66 52 0
-59 101 17 52 0
-59 66 17 52 0
-60 102 67 18 0
-60 102 67 53 0
-60 102 18 53 0
-60 67 18 53 0
-61 103 68 19 0
-61 103 68 54 0
-61 103 19 54 0
-61 68 19 54 0
-62 104 69 20 0
-62 104 69 55 0
-62 104 20 55 0
-62 69 20 55 0
-63 105 70 21 0
-63 105 70 56 0
-63 105 21 56 0
-63 70 21 56 0
-57 -99 -64 -15 0
-57 -99 -64 -50 0
-57 -99 -15 -50 0
-57 -64 -15 -50 0
-58 -100 -65 -16 0
-58 -100 -65 -51 0
-58 -100 -16 -51 0
-58 -65 -16 -51 0
-59 -101 -66 -17 0
-59 -101 -66 -52 0
-59 -101 -17 -52 0
-59 -66 -17 -52 0
-60 -102 -67 -18 0
-60 -102 -67 -53 0
-60 -102 -18 -53 0
-60 -67 -18 -53 0
-61 -103 -68 -19 0
-61 -103 -68 -54 0
-61 -103 -19 -54 0
-61 -68 -19 -54 0
-62 -104 -69 -20 0
-62 -104 -69 -55 0
-62 -104 -20 -55 0
-62 -69 -20 -55 0
-63 -105 -70 -21 0
-63 -105 -70 -56 0
-63 -105 -21 -56 0
-63 -70 -21 -56 0
-64 -271 0
-64 -272 0
-64 -273 0
-65 271 0
-65 -272 0
-65 -273 0
-66 -271 0
-66 272 0
-66 -273 0
-67 271 0
-67 272 0
-67 -273 0
-68 -271 0
-68 -272 0
-68 273 0
-69 271 0
-69 -272 0
-69 273 0
-70 -271 0
-70 272 0
-70 273 0
-64 106 71 22 0
-64 106 71 57 0
-64 106 22 57 0
-64 71 22 57 0
-65 107 72 23 0
-65 107 72 58 0
-65 107 23 58 0
-65 72 23 58 0
-66 108 73 24 0
-66 108 73 59 0
-66 108 24 59 0
-66 73 24 59 0
-67 109 74 25 0
-67 109 74 60 0
-67 109 25 60 0
-67 74 25 60 0
-68 110 75 26 0
-68 110 75 61 0
-68 110 26 61 0
-68 75 26 61 0
-69 111 76 27 0
-69 111 76 62 0
-69 111 27 62 0
-69 76 27 62 0
-70 112 77 28 0
-70 112 77 63 0
-70 112 28 63 0
-70 77 28 63 0
-64 -106 -71 -22 0
-64 -106 -71 -57 0
-64 -106 -22 -57 0
-64 -71 -22 -57 0
-65 -107 -72 -23 0
-65 -107 -72 -58 0
-65 -107 -23 -58 0
-65 -72 -23 -58 0
-66 -108 -73 -24 0
-66 -108 -73 -59 0
-66 -108 -24 -59 0
-66 -73 -24 -59 0
-67 -109 -74 -25 0
-67 -109 -74 -60 0
-67 -109 -25 -60 0
-67 -74 -25 -60 0
-68 -110 -75 -26 0
-68 -110 -75 -61 0
-68 -110 -26 -61 0
-68 -75 -26 -61 0
-69 -111 -76 -27 0
-69 -111 -76 -62 0
-69 -111 -27 -62 0
-69 -76 -27 -62 0
-70 -112 -77 -28 0
-70 -112 -77 -63 0
-70 -112 -28 -63 0
-70 -77 -28 -63 0
71 0
-72 0
-73 0
-74 0
-75 0
-76 0
-77 0
113 78 29 64 0
-113 -78 0
-113 -29 0
-113 -64 0
-78 -29 0
-78 -64 0
-29 -64 0
-78 -274 0
-78 -275 0
-78 -276 0
-79 274 0
-79 -275 0
-79 -276 0
-80 -274 0
-80 275 0
-80 -276 0
-81 274 0
-81 275 0
-81 -276 0
-82 -274 0
-82 -275 0
-82 276 0
-83 274 0
-83 -275 0
-83 276 0
-84 -274 0
-84 275 0
-84 276 0
-78 120 71 0
-78 120 36 0
-78 71 36 0
-79 121 72 0
-79 121 37 0
-79 72 37 0
-80 122 73 0
-80 122 38 0
-80 73 38 0
-81 123 74 0
-81 123 39 0
-81 74 39 0
-82 124 75 0
-82 124 40 0
-82 75 40 0
-83 125 76 0
-83 125 41 0
-83 76 41 0
-84 126 77 0
-84 126 42 0
-84 77 42 0
-78 -120 -71 -36 0
-79 -121 -72 -37 0
-80 -122 -73 -38 0
-81 -123 -74 -39 0
-82 -124 -75 -40 0
-83 -125 -76 -41 0
-84 -126 -77 -42 0
-85 -277 0
-85 -278 0
-85 -279 0
-86 277 0
-86 -278 0
-86 -279 0
-87 -277 0
-87 278 0
-87 -279 0
-88 277 0
-88 278 0
-88 -279 0
-89 -277 0
-89 -278 0
-89 279 0
-90 277 0
-90 -278 0
-90 279 0
-91 -277 0
-91 278 0
-91 279 0
-85 127 92 0
-85 127 43 0
-85 92 43 0
-86 128 93 0
-86 128 44 0
-86 93 44 0
-87 129 94 0
-87 129 45 0
-87 94 45 0
-88 130 95 0
-88 130 46 0
-88 95 46 0
-89 131 96 0
-89 131 47 0
-89 96 47 0
-90 132 97 0
-90 132 48 0
-90 97 48 0
-91 133 98 0
-91 133 49 0
-91 98 49 0
-85 -127 -92 -43 0
-86 -128 -93 -44 0
-87 -129 -94 -45 0
-88 -130 -95 -46 0
-89 -131 -96 -47 0
-90 -132 -97 -48 0
-91 -133 -98 -49 0
95 0
-92 0
-93 0
-94 0
-96 0
-97 0
-98 0
137 102 53 88 0
-137 -102 0
-137 -53 0
-137 -88 0
-102 -53 0
-102 -88 0
-53 -88 0
101 0
-99 0
-100 0
-102 0
-103 0
-104 0
-105 0
143 108 59 94 0
-143 -108 0
-143 -59 0
-143 -94 0
-108 -59 0
-108 -94 0
-59 -94 0
-106 -280 0
-106 -281 0
-106 -282 0
-107 280 0
-107 -281 0
-107 -282 0
-108 -280 0
-108 281 0
-108 -282 0
-109 280 0
-109 281 0
-109 -282 0
-110 -280 0
-110 -281 0
-110 282 0
-111 280 0
-111 -281 0
-111 282 0
-112 -280 0
-112 281 0
-112 282 0
-106 148 113 64 0
-106 148 113 99 0
-106 148 64 99 0
-106 113 64 99 0
-107 149 114 65 0
-107 149 114 100 0
-107 149 65 100 0
-107 114 65 100 0
-108 150 115 66 0
-108 150 115 101 0
-108 150 66 101 0
-108 115 66 101 0
-109 151 116 67 0
-109 151 116 102 0
-109 151 67 102 0
-109 116 67 102 0
-110 152 117 68 0
-110 152 117 103 0
-110 152 68 103 0
-110 117 68 103 0
-111 153 118 69 0
-111 153 118 104 0
-111 153 69 104 0
-111 118 69 104 0
-112 154 119 70 0
-112 154 119 105 0
-112 154 70 105 0
-112 119 70 105 0
-106 -148 -113 -64 0
-106 -148 -113 -99 0
-106 -148 -64 -99 0
-106 -113 -64 -99 0
-107 -149 -114 -65 0
-107 -149 -114 -100 0
-107 -149 -65 -100 0
-107 -114 -65 -100 0
-108 -150 -115 -66 0
-108 -150 -115 -101 0
-108 -150 -66 -101 0
-108 -115 -66 -101 0
-109 -151 -116 -67 0
-109 -151 -116 -102 0
-109 -151 -67 -102 0
-109 -116 -67 -102 0
-110 -152 -117 -68 0
-110 -152 -117 -103 0
-110 -152 -68 -103 0
-110 -117 -68 -103 0
-111 -153 -118 -69 0
-111 -153 -118 -104 0
-111 -153 -69 -104 0
-111 -118 -69 -104 0
-112 -154 -119 -70 0
-112 -154 -119 -105 0
-112 -154 -70 -105 0
-112 -119 -70 -105 0
115 0
-113 0
-114 0
-116 0
-117 0
-118 0
-119 0
157 122 73 108 0
-157 -122 0
-157 -73 0
-157 -108 0
-122 -73 0
-122 -108 0
-73 -108 0
-120 -283 0
-120 -284 0
-120 -285 0
-121 283 0
-121 -284 0
-121 -285 0
-122 -283 0
-122 284 0
-122 -285 0
-123 283 0
-123 284 0
-123 -285 0
-124 -283 0
-124 -284 0
-124 285 0
-125 283 0
-125 -284 0
-125 285 0
-126 -283 0
-126 284 0
-126 285 0
-120 162 113 0
-120 162 78 0
-120 113 78 0
-121 163 114 0
-121 163 79 0
-121 114 79 0
-122 164 115 0
-122 164 80 0
-122 115 80 0
-123 165 116 0
-123 165 81 0
-123 116 81 0
-124 166 117 0
-124 166 82 0
-124 117 82 0
-125 167 118 0
-125 167 83 0
-125 118 83 0
-126 168 119 0
-126 168 84 0
-126 119 84 0
-120 -162 -113 -78 0
-121 -163 -114 -79 0
-122 -164 -115 -80 0
-123 -165 -116 -81 0
-124 -166 -117 -82 0
-125 -167 -118 -83 0
-126 -168 -119 -84 0
-127 -286 0
-127 -287 0
-127 -288 0
-128 286 0
-128 -287 0
-128 -288 0
-129 -286 0
-129 287 0
-129 -288 0
-130 286 0
-130 287 0
-130 -288 0
-131 -286 0
-131 -287 0
-131 288 0
-132 286 0
-132 -287 0
-132 288 0
-133 -286 0
-133 287 0
-133 288 0
-127 169 134 0
-127 169 85 0
-127 134 85 0
-128 170 135 0
-128 170 86 0
-128 135 86 0
-129 171 136 0
-129 171 87 0
-129 136 87 0
-130 172 137 0
-130 172 88 0
-130 137 88 0
-131 173 138 0
-131 173 89 0
-131 138 89 0
-132 174 139 0
-132 174 90 0
-132 139 90 0
-133 175 140 0
-133 175 91 0
-133 140 91 0
-127 -169 -134 -85 0
-128 -170 -135 -86 0
-129 -171 -136 -87 0
-130 -172 -137 -88 0
-131 -173 -138 -89 0
-132 -174 -139 -90 0
-133 -175 -140 -91 0
139 0
-134 0
-135 0
-136 0
-137 0
-138 0
-140 0
181 146 97 132 0
-181 -146 0
-181 -97 0
-181 -132 0
-146 -97 0
-146 -132 0
-97 -132 0
147 0
-141 0
-142 0
-143 0
-144 0
-145 0
-146 0
189 154 105 140 0
-189 -154 0
-189 -105 0
-189 -140 0
-154 -105 0
-154 -140 0
-105 -140 0
-148 -289 0
-148 -290 0
-148 -291 0
-149 289 0
-149 -290 0
-149 -291 0
-150 -289 0
-150 290 0
-150 -291 0
-151 289 0
-151 290 0
-151 -291 0
-152 -289 0
-152 -290 0
-152 291 0
-153 289 0
-153 -290 0
-153 291 0
-154 -289 0
-154 290 0
-154 291 0
-148 190 155 106 0
-148 190 155 141 0
-148 190 106 141 0
-148 155 106 141 0
-149 191 156 107 0
-149 191 156 142 0
-149 191 107 142 0
-149 156 107 142 0
-150 192 157 108 0
-150 192 157 143 0
-150 192 108 143 0
-150 157 108 143 0
-151 193 158 109 0
-151 193 158 144 0
-151 193 109 144 0
-151 158 109 144 0
-152 194 159 110 0
-152 194 159 145 0
-152 194 110 145 0
-152 159 110 145 0
-153 195 160 111 0
-153 195 160 146 0
-153 195 111 146 0
-153 160 111 146 0
-154 196 161 112 0
-154 196 161 147 0
-154 196 112 147 0
-154 161 112 147 0
-148 -190 -155 -106 0
-148 -190 -155 -141 0
-148 -190 -106 -141 0
-148 -155 -106 -141 0
-149 -191 -156 -107 0
-149 -191 -156 -142 0
-149 -191 -107 -142 0
-149 -156 -107 -142 0
-150 -192 -157 -108 0
-150 -192 -157 -143 0
-150 -192 -108 -143 0
-150 -157 -108 -143 0
-151 -193 -158 -109 0
-151 -193 -158 -144 0
-151 -193 -109 -144 0
-151 -158 -109 -144 0
-152 -194 -159 -110 0
-152 -194 -159 -145 0
-152 -194 -110 -145 0
-152 -159 -110 -145 0
-153 -195 -160 -111 0
-153 -195 -160 -146 0
-153 -195 -111 -146 0
-153 -160 -111 -146 0
-154 -196 -161 -112 0
-154 -196 -161 -147 0
-154 -196 -112 -147 0
-154 -161 -112 -147 0
-155 -292 0
-155 -293 0
-155 -294 0
-156 292 0
-156 -293 0
-156 -294 0
-157 -292 0
-157 293 0
-157 -294 0
-158 292 0
-158 293 0
-158 -294 0
-159 -292 0
-159 -293 0
-159 294 0
-160 292 0
-160 -293 0
-160 294 0
-161 -292 0
-161 293 0
-161 294 0
-155 197 162 113 0
-155 197 162 148 0
-155 197 113 148 0
-155 162 113 148 0
-156 198 163 114 0
-156 198 163 149 0
-156 198 114 149 0
-156 163 114 149 0
-157 199 164 115 0
-157 199 164 150 0
-157 199 115 150 0
-157 164 115 150 0
-158 200 165 116 0
-158 200 165 151 0
-158 200 116 151 0
-158 165 116 151 0
-159 201 166 117 0
-159 201 166 152 0
-159 201 117 152 0
-159 166 117 152 0
-160 202 167 118 0
-160 202 167 153 0
-160 202 118 153 0
-160 167 118 153 0
-161 203 168 119 0
-161 203 168 154 0
-161 203 119 154 0
-161 168 119 154 0
-155 -197 -162 -113 0
-155 -197 -162 -148 0
-155 -197 -113 -148 0
-155 -162 -113 -148 0
-156 -198 -163 -114 0
-156 -198 -163 -149 0
-156 -198 -114 -149 0
-156 -163 -114 -149 0
-157 -199 -164 -115 0
-157 -199 -164 -150 0
-157 -199 -115 -150 0
-157 -164 -115 -150 0
-158 -200 -165 -116 0
-158 -200 -165 -151 0
-158 -200 -116 -151 0
-158 -165 -116 -151 0
-159 -201 -166 -117 0
-159 -201 -166 -152 0
-159 -201 -117 -152 0
-159 -166 -117 -152 0
-160 -202 -167 -118 0
-160 -202 -167 -153 0
-160 -202 -118 -153 0
-160 -167 -118 -153 0
-161 -203 -168 -119 0
-161 -203 -168 -154 0
-161 -203 -119 -154 0
-161 -168 -119 -154 0
-162 -295 0
-162 -296 0
-162 -297 0
-163 295 0
-163 -296 0
-163 -297 0
-164 -295 0
-164 296 0
-164 -297 0
-165 295 0
-165 296 0
-165 -297 0
-166 -295 0
-166 -296 0
-166 297 0
-167 295 0
-167 -296 0
-167 297 0
-168 -295 0
-168 296 0
-168 297 0
-162 204 155 0
-162 204 120 0
-162 155 120 0
-163 205 156 0
-163 205 121 0
-163 156 121 0
-164 206 157 0
-164 206 122 0
-164 157 122 0
-165 207 158 0
-165 207 123 0
-165 158 123 0
-166 208 159 0
-166 208 124 0
-166 159 124 0
-167 209 160 0
-167 209 125 0
-167 160 125 0
-168 210 161 0
-168 210 126 0
-168 161 126 0
-162 -204 -155 -120 0
-163 -205 -156 -121 0
-164 -206 -157 -122 0
-165 -207 -158 -123 0
-166 -208 -159 -124 0
-167 -209 -160 -125 0
-168 -210 -161 -126 0
-169 -298 0
-169 -299 0
-169 -300 0
-170 298 0
-170 -299 0
-170 -300 0
-171 -298 0
-171 299 0
-171 -300 0
-172 298 0
-172 299 0
-172 -300 0
-173 -298 0
-173 -299 0
-173 300 0
-174 298 0
-174 -299 0
-174 300 0
-175 -298 0
-175 299 0
-175 300 0
-169 211 176 0
-169 211 127 0
-169 176 127 0
-170 212 177 0
-170 212 128 0
-170 177 128 0
-171 213 178 0
-171 213 129 0
-171 178 129 0
-172 214 179 0
-172 214 130 0
-172 179 130 0
-173 215 180 0
-173 215 131 0
-173 180 131 0
-174 216 181 0
-174 216 132 0
-174 181 132 0
-175 217 182 0
-175 217 133 0
-175 182 133 0
-169 -211 -176 -127 0
-170 -212 -177 -128 0
-171 -213 -178 -129 0
-172 -214 -179 -130 0
-173 -215 -180 -131 0
-174 -216 -181 -132 0
-175 -217 -182 -133 0
180 0
-176 0
-177 0
-178 0
-179 0
-181 0
-182 0
222 187 138 173 0
-222 -187 0
-222 -138 0
-222 -173 0
-187 -138 0
-187 -173 0
-138 -173 0
-183 -301 0
-183 -302 0
-183 -303 0
-184 301 0
-184 -302 0
-184 -303 0
-185 -301 0
-185 302 0
-185 -303 0
-186 301 0
-186 302 0
-186 -303 0
-187 -301 0
-187 -302 0
-187 303 0
-188 301 0
-188 -302 0
-188 303 0
-189 -301 0
-189 302 0
-189 303 0
-183 225 190 141 0
-183 225 190 176 0
-183 225 141 176 0
-183 190 141 176 0
-184 226 191 142 0
-184 226 191 177 0
-184 226 142 177 0
-184 191 142 177 0
-185 227 192 143 0
-185 227 192 178 0
-185 227 143 178 0
-185 192 143 178 0
-186 228 193 144 0
-186 228 193 179 0
-186 228 144 179 0
-186 193 144 179 0
-187 229 194 145 0
-187 229 194 180 0
-187 229 145 180 0
-187 194 145 180 0
-188 230 195 146 0
-188 230 195 181 0
-188 230 146 181 0
-188 195 146 181 0
-189 231 196 147 0
-189 231 196 182 0
-189 231 147 182 0
-189 196 147 182 0
-183 -225 -190 -141 0
-183 -225 -190 -176 0
-183 -225 -141 -176 0
-183 -190 -141 -176 0
-184 -226 -191 -142 0
-184 -226 -191 -177 0
-184 -226 -142 -177 0
-184 -191 -142 -177 0
-185 -227 -192 -143 0
-185 -227 -192 -178 0
-185 -227 -143 -178 0
-185 -192 -143 -178 0
-186 -228 -193 -144 0
-186 -228 -193 -179 0
-186 -228 -144 -179 0
-186 -193 -144 -179 0
-187 -229 -194 -145 0
-187 -229 -194 -180 0
-187 -229 -145 -180 0
-187 -194 -145 -180 0
-188 -230 -195 -146 0
-188 -230 -195 -181 0
-188 -230 -146 -181 0
-188 -195 -146 -181 0
-189 -231 -196 -147 0
-189 -231 -196 -182 0
-189 -231 -147 -182 0
-189 -196 -147 -182 0
-190 -304 0
-190 -305 0
-190 -306 0
-191 304 0
-191 -305 0
-191 -306 0
-192 -304 0
-192 305 0
-192 -306 0
-193 304 0
-193 305 0
-193 -306 0
-194 -304 0
-194 -305 0
-194 306 0
-195 304 0
-195 -305 0
-195 306 0
-196 -304 0
-196 305 0
-196 306 0
-190 232 197 148 0
-190 232 197 183 0
-190 232 148 183 0
-190 197 148 183 0
-191 233 198 149 0
-191 233 198 184 0
-191 233 149 184 0
-191 198 149 184 0
-192 234 199 150 0
-192 234 199 185 0
-192 234 150 185 0
-192 199 150 185 0
-193 235 200 151 0
-193 235 200 186 0
-193 235 151 186 0
-193 200 151 186 0
-194 236 201 152 0
-194 236 201 187 0
-194 236 152 187 0
-194 201 152 187 0
-195 237 202 153 0
-195 237 202 188 0
-195 237 153 188 0
-195 202 153 188 0
-196 238 203 154 0
-196 238 203 189 0
-196 238 154 189 0
-196 203 154 189 0
-190 -232 -197 -148 0
-190 -232 -197 -183 0
-190 -232 -148 -183 0
-190 -197 -148 -183 0
-191 -233 -198 -149 0
-191 -233 -198 -184 0
-191 -233 -149 -184 0
-191 -198 -149 -184 0
-192 -234 -199 -150 0
-192 -234 -199 -185 0
-192 -234 -150 -185 0
-192 -199 -150 -185 0
-193 -235 -200 -151 0
-193 -235 -200 -186 0
-193 -235 -151 -186 0
-193 -200 -151 -186 0
-194 -236 -201 -152 0
-194 -236 -201 -187 0
-194 -236 -152 -187 0
-194 -201 -152 -187 0
-195 -237 -202 -153 0
-195 -237 -202 -188 0
-195 -237 -153 -188 0
-195 -202 -153 -188 0
-196 -238 -203 -154 0
-196 -238 -203 -189 0
-196 -238 -154 -189 0
-196 -203 -154 -189 0
203 0
-197 0
-198 0
-199 0
-200 0
-201 0
-202 0
245 210 161 196 0
-245 -210 0
-245 -161 0
-245 -196 0
-210 -161 0
-210 -196 0
-161 -196 0
-204 -307 0
-204 -308 0
-204 -309 0
-205 307 0
-205 -308 0
-205 -309 0
-206 -307 0
-206 308 0
-206 -309 0
-207 307 0
-207 308 0
-207 -309 0
-208 -307 0
-208 -308 0
-208 309 0
-209 307 0
-209 -308 0
-209 309 0
-210 -307 0
-210 308 0
-210 309 0
-204 246 197 0
-204 246 162 0
-204 197 162 0
-205 247 198 0
-205 247 163 0
-205 198 163 0
-206 248 199 0
-206 248 164 0
-206 199 164 0
-207 249 200 0
-207 249 165 0
-207 200 165 0
-208 250 201 0
-208 250 166 0
-208 201 166 0
-209 251 202 0
-209 251 167 0
-209 202 167 0
-210 252 203 0
-210 252 168 0
-210 203 168 0
-204 -246 -197 -162 0
-205 -247 -198 -163 0
-206 -248 -199 -164 0
-207 -249 -200 -165 0
-208 -250 -201 -166 0
-209 -251 -202 -167 0
-210 -252 -203 -168 0
-211 -310 0
-211 -311 0
-211 -312 0
-212 310 0
-212 -311 0
-212 -312 0
-213 -310 0
-213 311 0
-213 -312 0
-214 310 0
-214 311 0
-214 -312 0
-215 -310 0
-215 -311 0
-215 312 0
-216 310 0
-216 -311 0
-216 312 0
-217 -310 0
-217 311 0
-217 312 0
-211 169 0
-211 218 0
-212 170 0
-212 219 0
-213 171 0
-213 220 0
-214 172 0
-214 221 0
-215 173 0
-215 222 0
-216 174 0
-216 223 0
-217 175 0
-217 224 0
-218 -313 0
-218 -314 0
-218 -315 0
-219 313 0
-219 -314 0
-219 -315 0
-220 -313 0
-220 314 0
-220 -315 0
-221 313 0
-221 314 0
-221 -315 0
-222 -313 0
-222 -314 0
-222 315 0
-223 313 0
-223 -314 0
-223 315 0
-224 -313 0
-224 314 0
-224 315 0
-218 176 225 0
-218 176 211 0
-218 225 211 0
-219 177 226 0
-219 177 212 0
-219 226 212 0
-220 178 227 0
-220 178 213 0
-220 227 213 0
-221 179 228 0
-221 179 214 0
-221 228 214 0
-222 180 229 0
-222 180 215 0
-222 229 215 0
-223 181 230 0
-223 181 216 0
-223 230 216 0
-224 182 231 0
-224 182 217 0
-224 231 217 0
-218 -176 -225 -211 0
-219 -177 -226 -212 0
-220 -178 -227 -213 0
-221 -179 -228 -214 0
-222 -180 -229 -215 0
-223 -181 -230 -216 0
-224 -182 -231 -217 0
230 0
-225 0
-226 0
-227 0
-228 0
-229 0
-231 0
188 237 223 0
-188 -237 0
-188 -223 0
-237 -223 0
236 0
-232 0
-233 0
-234 0
-235 0
-237 0
-238 0
194 243 229 0
-194 -243 0
-194 -229 0
-243 -229 0
240 0
-239 0
-241 0
-242 0
-243 0
-244 0
-245 0
198 247 233 0
-198 -247 0
-198 -233 0
-247 -233 0
-246 -316 0
-246 -317 0
-246 -318 0
-247 316 0
-247 -317 0
-247 -318 0
-248 -316 0
-248 317 0
-248 -318 0
-249 316 0
-249 317 0
-249 -318 0
-250 -316 0
-250 -317 0
-250 318 0
-251 316 0
-251 -317 0
-251 318 0
-252 -316 0
-252 317 0
-252 318 0
-246 204 0
-246 239 0
-247 205 0
-247 240 0
-248 206 0
-248 241 0
-249 207 0
-249 242 0
-250 208 0
-250 243 0
-251 209 0
-251 244 0
-252 210 0
-252 245 0